c Sudoku solution
p cnf 729 0
135 0
216 0
223 0
237 0
241 0
252 0
324 0
331 0
387 0
393 0
449 0
554 0
573 0
592 0
618 0
128 0
681 0
715 0
742 0
791 0
171 0
822 0
861 0
451 0
874 0
883 0
895 0
988 0
972 0
182 0
119 0
312 0
817 0
511 0
921 0
539 0
729 0
786 0
777 0
999 0
859 0
585 0
484 0
413 0
634 0
432 0
662 0
914 0
764 0
144 0
196 0
294 0
289 0
369 0
679 0
476 0
697 0
498 0
846 0
758 0
733 0
936 0
838 0
356 0
566 0
548 0
467 0
425 0
626 0
527 0
947 0
643 0
655 0
345 0
268 0
275 0
378 0
953 0
965 0
157 0
163 0
